130 5
10 10 10 10 10 

0 0 0 0 0 0 1 2 
0 0 0 0 0 0 1 3 
5 0 1 0 0 0 3 7 5 4 
5 0 6 0 0 0 2 8 6 
8 0 2 0 0 0 1 6 
4 0 6 0 0 0 3 12 11 9 
9 0 8 0 0 0 3 12 11 10 
10 0 8 0 0 0 2 11 9 
7 0 5 0 0 0 1 10 
10 0 3 0 0 0 1 13 
6 0 4 0 0 0 1 13 
10 0 7 0 0 0 1 13 
0 0 0 0 0 0 2 14 26 
0 0 0 0 0 0 4 15 16 18 24 
1 0 0 0 0 1 2 20 19 
3 0 0 0 0 5 1 17 
7 0 0 0 0 7 2 19 96 
1 0 0 0 0 5 1 19 
8 0 0 0 0 6 2 23 21 
5 0 0 0 0 5 1 21 
9 0 0 0 0 4 1 22 
8 0 0 0 0 3 1 25 
6 0 0 0 0 9 1 25 
10 0 0 0 0 5 1 25 
0 0 0 0 0 0 1 38 
0 0 0 0 0 0 3 27 29 30 
7 1 0 0 0 0 1 28 
10 4 0 0 0 0 3 36 33 31 
8 8 0 0 0 0 3 36 33 31 
5 7 0 0 0 0 3 35 33 97 
3 7 0 0 0 0 1 32 
5 5 0 0 0 0 2 35 34 
3 7 0 0 0 0 1 34 
6 4 0 0 0 0 1 37 
2 3 0 0 0 0 1 37 
4 4 0 0 0 0 1 37 
0 0 0 0 0 0 1 38 
0 0 0 0 0 0 3 39 61 73 
0 0 0 0 0 0 2 40 59 
10 0 1 0 0 1 1 41 
6 0 3 0 0 5 2 58 42 
5 0 4 0 0 4 2 50 43 
7 0 4 0 0 3 4 57 47 44 74 
9 0 4 0 0 4 2 55 45 
1 0 2 0 0 8 1 46 
4 0 5 0 0 4 3 54 53 48 
8 0 8 0 0 9 1 48 
6 0 7 0 0 4 2 52 49 
7 0 5 0 0 8 1 51 
10 0 5 0 0 4 1 56 
4 0 2 0 0 3 1 60 
6 0 5 0 0 6 1 60 
3 0 8 0 0 5 1 60 
4 0 5 0 0 3 1 60 
7 0 8 0 0 4 1 60 
8 0 6 0 0 6 1 60 
2 0 7 0 0 9 1 60 
10 0 5 0 0 5 1 60 
7 0 6 0 0 5 1 60 
0 0 0 0 0 0 1 119 
0 0 0 0 0 0 2 62 63 
4 0 0 0 0 1 3 68 65 64 
7 0 0 0 0 5 3 71 68 67 
2 0 0 0 0 5 2 71 66 
10 0 0 0 0 6 2 71 66 
9 0 0 0 0 6 1 67 
3 0 0 0 0 6 2 70 69 
8 0 0 0 0 3 2 70 69 
2 0 0 0 0 6 2 72 115 
7 0 0 0 0 6 1 72 
10 0 0 0 0 6 1 72 
0 0 0 0 0 0 2 95 107 
0 0 0 0 0 0 3 74 75 80 
2 1 0 1 0 0 3 83 79 76 
10 7 0 9 0 0 3 81 79 77 
6 3 0 5 0 0 1 78 
8 3 0 6 0 0 4 87 84 83 82 
4 5 0 5 0 0 3 87 84 81 
6 5 0 3 0 0 2 87 82 
7 4 0 6 0 0 2 86 84 
10 4 0 6 0 0 1 82 
10 10 0 4 0 0 2 86 85 
10 6 0 5 0 0 2 86 85 
10 4 0 6 0 0 1 85 
1 7 0 3 0 0 1 88 
3 9 0 3 0 0 1 88 
4 6 0 4 0 0 1 88 
9 1 0 7 0 0 2 91 89 
7 7 0 4 0 0 2 92 90 
5 5 0 8 0 0 1 93 
4 3 0 5 0 0 1 92 
1 8 0 6 0 0 1 94 
8 2 0 4 0 0 1 94 
0 0 0 0 0 0 1 119 
0 0 0 0 0 0 4 96 99 100 102 
8 0 0 0 1 0 1 97 
3 0 0 0 5 0 2 105 98 
3 0 0 0 4 0 2 104 101 
8 0 0 0 4 0 2 104 103 
4 0 0 0 6 0 2 104 103 
9 0 0 0 6 0 1 103 
8 0 0 0 3 0 1 105 
9 0 0 0 8 0 1 106 
3 0 0 0 5 0 1 106 
8 0 0 0 8 0 1 106 
0 0 0 0 0 0 1 119 
0 0 0 0 0 0 4 108 110 113 114 
6 1 0 0 0 0 2 112 109 
9 5 0 0 0 0 1 111 
4 3 0 0 0 0 1 111 
3 4 0 0 0 0 2 117 115 
8 8 0 0 0 0 2 117 115 
10 1 0 0 0 0 2 117 115 
5 5 0 0 0 0 2 117 115 
7 10 0 0 0 0 1 116 
9 7 0 0 0 0 1 118 
7 6 0 0 0 0 1 118 
0 0 0 0 0 0 1 119 
0 0 0 0 0 0 2 120 122 
7 0 0 0 0 1 1 121 
1 0 0 0 0 8 3 125 124 123 
4 0 0 0 0 4 2 124 123 
9 0 0 0 0 7 2 127 126 
1 0 0 0 0 5 1 126 
9 0 0 0 0 5 1 126 
1 0 0 0 0 5 2 129 128 
2 0 0 0 0 3 1 128 
2 0 0 0 0 4 1 130 
8 0 0 0 0 8 1 130 
0 0 0 0 0 0 0 
